
Gurobi 13.0.2 (win64) logging started Thu Jul 23 05:58:14 2026

Set parameter LogFile to value "E:\codes\ExactEBRP\results\gf_cplex_equivalent_gurobi_replica_round28\runs\stage2__moderate_seed4302__c3_replica__300s\external\native_logs\R.0.0.0.0.0_lp.gurobi.log"
Gurobi Optimizer version 13.0.2 build v13.0.2rc1 (win64 - Windows 10.0 (19045.2))

CPU model: 12th Gen Intel(R) Core(TM) i7-12700KF, instruction set [SSE2|AVX|AVX2]
Thread count: 12 physical cores, 20 logical processors, using up to 1 threads

Non-default parameters:
TimeLimit  256.8971935
MIPGap  0
MIPGapAbs  0
LogToConsole  0
Threads  1

Optimize a model with 11919 rows, 3378 columns and 67134 nonzeros (Min)
Model fingerprint: 0x8c180a8e
Model has 21 linear objective coefficients
Coefficient statistics:
  Matrix range     [2e-03, 2e+04]
  Objective range  [7e-03, 1e+00]
  Bounds range     [2e-03, 1e+02]
  RHS range        [2e-03, 5e+04]

Presolve removed 1118 rows and 121 columns
Presolve time: 0.04s
Presolved: 10801 rows, 3258 columns, 63398 nonzeros

Iteration    Objective       Primal Inf.    Dual Inf.      Time
       0    0.0000000e+00   8.065618e+01   0.000000e+00      0s
    1398    0.0000000e+00   0.000000e+00   0.000000e+00      0s

Solved in 1398 iterations and 0.11 seconds (0.29 work units)
Optimal objective  0.000000000e+00

User-callback calls 1543, time in user-callback 0.00 sec
